
  22    4
  10   10   10   10

   0   0   0   0   0   5 2 3 4 6 10 
   1  10  10  10  10   5 21 14 11 9 7 
   9  10  10  10  10   3 9 8 5 
   9  10  10  10  10   3 21 14 7 
   4  10  10  10  10   2 14 7 
   2  10  10  10  10   2 14 7 
   6  10  10  10  10   3 20 13 12 
   4  10  10  10  10   4 20 17 15 12 
   8  10  10  10  10   5 20 19 18 16 15 
   4  10  10  10  10   5 19 18 17 16 15 
   1  10  10  10  10   4 19 17 16 15 
   4  10  10  10  10   3 19 18 16 
   7  10  10  10  10   3 17 16 15 
   2  10  10  10  10   3 18 17 15 
   6  10  10  10  10   1 22
   4  10  10  10  10   1 22
   3  10  10  10  10   1 22
   5  10  10  10  10   1 22
   2  10  10  10  10   1 22
  10  10  10  10  10   1 22
   7  10  10  10  10   1 22
   0   0   0   0   0   0 
